%%%mzn-stat: initTime=0.053573805
%%%mzn-stat: objective=195
%%%mzn-stat: nodes=376118
%%%mzn-stat: restarts=302
%%%mzn-stat: peakDepth=939
%%%mzn-stat: solveTime=85.701380586
%%%mzn-stat: variables=1822
%%%mzn-stat: propagators=1453
%%%mzn-stat: failures=129067
%%%mzn-stat: propagations=6899313
%%%mzn-stat: nogoods=129067
%%%mzn-stat: AverageConflictSize=50.098104085474986
%%%mzn-stat: NumUnitNogoodsLearned=191
%%%mzn-stat: AverageLearnedNogoodLength=65.56775163287286
%%%mzn-stat: AverageBacktrackAmount=0
%%%mzn-stat: AverageLbd=34.156895255952335
%%%mzn-stat-end
maxleg = 195;
succ = array1d(1..100,[60, 22, 33, 88, 43, 89, 23, 61, 29, 1, 91, 57, 94, 45, 49, 19, 98, 79, 62, 76, 70, 35, 85, 54, 38, 5, 97, 71, 82, 6, 15, 87, 100, 12, 40, 64, 13, 47, 20, 96, 25, 55, 66, 39, 34, 68, 52, 30, 44, 67, 81, 3, 46, 48, 17, 37, 99, 16, 9, 73, 86, 8, 7, 69, 50, 2, 58, 95, 51, 83, 90, 36, 26, 28, 78, 11, 18, 80, 59, 24, 84, 27, 56, 53, 14, 31, 42, 10, 63, 93, 32, 4, 77, 92, 75, 41, 72, 74, 21, 65]);
% time elapsed: 94.15 s
----------
%%%mzn-stat: initTime=0.053573805
%%%mzn-stat: objective=192
%%%mzn-stat: nodes=377325
%%%mzn-stat: restarts=302
%%%mzn-stat: peakDepth=961
%%%mzn-stat: solveTime=85.75125358
%%%mzn-stat: variables=1822
%%%mzn-stat: propagators=1453
%%%mzn-stat: failures=129119
%%%mzn-stat: propagations=6906131
%%%mzn-stat: nogoods=129119
%%%mzn-stat: AverageConflictSize=50.08405424453411
%%%mzn-stat: NumUnitNogoodsLearned=191
%%%mzn-stat: AverageLearnedNogoodLength=65.55395410435335
%%%mzn-stat: AverageBacktrackAmount=0
%%%mzn-stat: AverageLbd=34.15004763048041
%%%mzn-stat-end
maxleg = 192;
succ = array1d(1..100,[60, 22, 8, 88, 43, 89, 23, 62, 29, 1, 91, 73, 94, 45, 49, 20, 98, 79, 33, 76, 70, 35, 85, 54, 38, 5, 97, 71, 82, 6, 19, 87, 100, 12, 40, 64, 13, 61, 47, 96, 25, 55, 66, 39, 34, 68, 52, 30, 44, 67, 81, 3, 46, 48, 17, 37, 99, 16, 9, 41, 86, 11, 7, 69, 50, 2, 58, 95, 51, 56, 90, 36, 26, 28, 78, 15, 18, 80, 59, 24, 84, 27, 92, 53, 14, 31, 42, 10, 63, 93, 32, 4, 77, 83, 75, 57, 72, 74, 21, 65]);
% time elapsed: 94.20 s
----------
==========
% time elapsed: 94.20 s
%%%mzn-stat: initTime=0.053573805
%%%mzn-stat: objective=192
%%%mzn-stat: nodes=377325
%%%mzn-stat: restarts=302
%%%mzn-stat: peakDepth=961
%%%mzn-stat: solveTime=85.751257295
%%%mzn-stat: variables=1822
%%%mzn-stat: propagators=1453
%%%mzn-stat: failures=129119
%%%mzn-stat: propagations=6906131
%%%mzn-stat: nogoods=129119
%%%mzn-stat: AverageConflictSize=50.08405424453411
%%%mzn-stat: NumUnitNogoodsLearned=191
%%%mzn-stat: AverageLearnedNogoodLength=65.55395410435335
%%%mzn-stat: AverageBacktrackAmount=0
%%%mzn-stat: AverageLbd=34.15004763048041
%%%mzn-stat-end
